98
0 69 76 41 88 97 46 7 43 64 
72 19 61 16 80 92 60 73 68 8 
1 13 59 51 17 37 95 38 84 75 
56 3 70 5 35 36 45 28 44 82 
96 31 85 86 18 91 87 29 52 12 
94 22 93 57 24 30 79 4 21 2 
90 23 74 34 26 77 32 42 49 33 
67 54 10 66 50 62 40 53 39 27 
78 58 89 48 83 6 47 9 55 81 
11 20 63 65 71 14 25 15 
